; DUP1 DUP3 SSTORE DUP1 SWAP2 POP => DUP1 DUP1 SWAP3 SSTORE
(set-option :produce-proofs true)
; 
(set-info :status unknown)
(declare-fun storage_t ((_ BitVec 256) (_ BitVec 256) (_ BitVec 256) Int (_ BitVec 256)) (_ BitVec 256))
(declare-fun storage_s ((_ BitVec 256) (_ BitVec 256) (_ BitVec 256) Int (_ BitVec 256)) (_ BitVec 256))
(declare-fun exc_halt_t (Int) Bool)
(declare-fun exc_halt_s (Int) Bool)
(declare-fun stack_t ((_ BitVec 256) (_ BitVec 256) (_ BitVec 256) Int (_ BitVec 6)) (_ BitVec 256))
(declare-fun stack_s ((_ BitVec 256) (_ BitVec 256) (_ BitVec 256) Int (_ BitVec 6)) (_ BitVec 256))
(declare-fun sc_t (Int) (_ BitVec 6))
(declare-fun sc_s (Int) (_ BitVec 6))
(declare-fun used_gas_t ((_ BitVec 256) (_ BitVec 256) (_ BitVec 256) Int) Int)
(declare-fun used_gas_s ((_ BitVec 256) (_ BitVec 256) (_ BitVec 256) Int) Int)
(assert
 (exists ((x_0 (_ BitVec 256)) (x_1 (_ BitVec 256)) (x_SSTORE_0 (_ BitVec 256)) )(let (($x8132 (forall ((w (_ BitVec 256)) )(let ((?x1924 (storage_t x_0 x_1 x_SSTORE_0 4 w)))
 (let ((?x8738 (storage_s x_0 x_1 x_SSTORE_0 6 w)))
 (= ?x8738 ?x1924))))
 ))
 (let (($x3723 (exc_halt_t 4)))
 (let (($x772 (exc_halt_s 6)))
 (let (($x3950 (= $x772 $x3723)))
 (let (($x5662 (forall ((n (_ BitVec 6)) )(let ((?x4187 (stack_t x_0 x_1 x_SSTORE_0 4 n)))
 (let ((?x3515 (stack_s x_0 x_1 x_SSTORE_0 6 n)))
 (let (($x10335 (= ?x3515 ?x4187)))
 (let ((?x3757 (sc_t 4)))
 (let (($x916 (bvsle ?x3757 n)))
 (or $x916 $x10335)))))))
 ))
 (let ((?x3757 (sc_t 4)))
 (let ((?x926 (sc_s 6)))
 (let (($x3687 (= ?x926 ?x3757)))
 (let ((?x2523 (used_gas_t x_0 x_1 x_SSTORE_0 0)))
 (let ((?x8131 (used_gas_s x_0 x_1 x_SSTORE_0 0)))
 (let (($x5354 (= ?x8131 ?x2523)))
 (let (($x8419 (forall ((w (_ BitVec 256)) )(let ((?x3548 (storage_t x_0 x_1 x_SSTORE_0 0 w)))
 (let ((?x3296 (storage_s x_0 x_1 x_SSTORE_0 0 w)))
 (= ?x3296 ?x3548))))
 ))
 (let (($x56 (exc_halt_t 0)))
 (let (($x57 (exc_halt_s 0)))
 (let (($x58 (= $x57 $x56)))
 (let (($x5449 (forall ((n (_ BitVec 6)) )(let ((?x63 (sc_t 0)))
 (let (($x6321 (bvsle ?x63 n)))
 (let ((?x3134 (stack_t x_0 x_1 x_SSTORE_0 0 n)))
 (let ((?x2604 (stack_s x_0 x_1 x_SSTORE_0 0 n)))
 (let (($x3216 (= ?x2604 ?x3134)))
 (or $x3216 $x6321)))))))
 ))
 (let ((?x63 (sc_t 0)))
 (let ((?x72 (sc_s 0)))
 (let (($x73 (= ?x72 ?x63)))
 (let (($x6800 (= $x3723 (or (exc_halt_t 3) (not (bvsle (_ bv0 6) (bvadd (_ bv62 6) (sc_t 3))))))))
 (let (($x4029 (forall ((n (_ BitVec 6)) )(let ((?x3449 (stack_t x_0 x_1 x_SSTORE_0 3 n)))
 (let ((?x4187 (stack_t x_0 x_1 x_SSTORE_0 4 n)))
 (or (= ?x4187 ?x3449) (bvsle (bvadd (_ bv62 6) (sc_t 3)) n)))))
 ))
 (let ((?x2725 (sc_t 3)))
 (let ((?x11268 (bvadd (_ bv62 6) ?x2725)))
 (let ((?x111 (stack_t x_0 x_1 x_SSTORE_0 3 ?x11268)))
 (let (($x7688 (= ?x111 (_ bv0 256))))
 (let ((?x6571 (bvadd (_ bv63 6) ?x2725)))
 (let ((?x8792 (stack_t x_0 x_1 x_SSTORE_0 3 ?x6571)))
 (let ((?x9187 (ite (= (storage_t x_0 x_1 x_SSTORE_0 3 ?x8792) (_ bv0 256)) (ite $x7688 5000 20000) (ite $x7688 (- 10000) 5000))))
 (let ((?x5902 (used_gas_t x_0 x_1 x_SSTORE_0 3)))
 (let ((?x1636 (used_gas_t x_0 x_1 x_SSTORE_0 4)))
 (let (($x4547 (forall ((w (_ BitVec 256)) )(let ((?x1541 (storage_t x_0 x_1 x_SSTORE_0 3 w)))
 (let ((?x6808 (ite (= w (stack_t x_0 x_1 x_SSTORE_0 3 (bvadd (_ bv63 6) (sc_t 3)))) (stack_t x_0 x_1 x_SSTORE_0 3 (bvadd (_ bv62 6) (sc_t 3))) ?x1541)))
 (let ((?x1924 (storage_t x_0 x_1 x_SSTORE_0 4 w)))
 (= ?x1924 ?x6808)))))
 ))
 (let (($x2075 (exc_halt_t 3)))
 (let (($x8648 (= $x2075 (or (exc_halt_t 2) (not (bvsle (_ bv0 6) (bvadd (_ bv60 6) (sc_t 2))))))))
 (let (($x7610 (forall ((w (_ BitVec 256)) )(let ((?x3164 (storage_t x_0 x_1 x_SSTORE_0 2 w)))
 (let ((?x1541 (storage_t x_0 x_1 x_SSTORE_0 3 w)))
 (= ?x1541 ?x3164))))
 ))
 (let (($x3317 (forall ((n (_ BitVec 6)) )(let ((?x374 (stack_t x_0 x_1 x_SSTORE_0 2 n)))
 (let ((?x3449 (stack_t x_0 x_1 x_SSTORE_0 3 n)))
 (or (bvsle (bvadd (_ bv60 6) (sc_t 2)) n) (= ?x3449 ?x374)))))
 ))
 (let ((?x2714 (sc_t 2)))
 (let (($x2548 (= ?x2725 ?x2714)))
 (let (($x8470 (= ?x5902 (+ 3 (used_gas_t x_0 x_1 x_SSTORE_0 2)))))
 (let (($x5264 (= ?x111 (stack_t x_0 x_1 x_SSTORE_0 2 (bvadd (_ bv62 6) ?x2714)))))
 (let (($x9914 (= (stack_t x_0 x_1 x_SSTORE_0 3 (bvadd (_ bv61 6) ?x2725)) (stack_t x_0 x_1 x_SSTORE_0 2 (bvadd (_ bv61 6) ?x2714)))))
 (let ((?x11371 (bvadd (_ bv63 6) ?x2714)))
 (let ((?x11719 (stack_t x_0 x_1 x_SSTORE_0 2 ?x11371)))
 (let (($x6715 (= (stack_t x_0 x_1 x_SSTORE_0 3 (bvadd (_ bv60 6) ?x2725)) ?x11719)))
 (let (($x10592 (= ?x8792 (stack_t x_0 x_1 x_SSTORE_0 2 (bvadd (_ bv60 6) ?x2714)))))
 (let (($x10979 (not (bvsle (_ bv0 6) (bvadd (_ bv63 6) (sc_t 1))))))
 (let (($x8124 (not (= ((_ extract 6 6) (bvadd (_ bv1 7) (concat (_ bv0 1) (sc_t 1)))) (_ bv0 1)))))
 (let (($x8096 (exc_halt_t 1)))
 (let (($x5252 (exc_halt_t 2)))
 (let (($x1985 (= $x5252 (or $x8096 $x8124 $x10979))))
 (let (($x260 (forall ((w (_ BitVec 256)) )(let ((?x7084 (storage_t x_0 x_1 x_SSTORE_0 1 w)))
 (let ((?x3164 (storage_t x_0 x_1 x_SSTORE_0 2 w)))
 (= ?x3164 ?x7084))))
 ))
 (let (($x2338 (forall ((n (_ BitVec 6)) )(let ((?x10950 (sc_t 1)))
 (let ((?x2841 (bvadd (_ bv63 6) ?x10950)))
 (let (($x6081 (bvsle ?x2841 n)))
 (let ((?x4728 (stack_t x_0 x_1 x_SSTORE_0 1 n)))
 (let ((?x374 (stack_t x_0 x_1 x_SSTORE_0 2 n)))
 (or (= ?x374 ?x4728) $x6081)))))))
 ))
 (let (($x6826 (= ?x2714 (bvadd (_ bv1 6) (sc_t 1)))))
 (let ((?x5924 (used_gas_t x_0 x_1 x_SSTORE_0 2)))
 (let (($x6069 (= ?x5924 (+ 3 (used_gas_t x_0 x_1 x_SSTORE_0 1)))))
 (let ((?x10950 (sc_t 1)))
 (let ((?x2841 (bvadd (_ bv63 6) ?x10950)))
 (let ((?x3437 (stack_t x_0 x_1 x_SSTORE_0 1 ?x2841)))
 (let (($x8411 (= (stack_t x_0 x_1 x_SSTORE_0 2 ?x2841) ?x3437)))
 (let (($x7534 (= ?x11719 ?x3437)))
 (let (($x11677 (not (bvsle (_ bv0 6) (bvadd (_ bv63 6) ?x63)))))
 (let (($x6182 (not (= ((_ extract 6 6) (bvadd (_ bv1 7) (concat (_ bv0 1) ?x63))) (_ bv0 1)))))
 (let (($x1798 (= $x8096 (or $x56 $x6182 $x11677))))
 (let (($x6067 (forall ((w (_ BitVec 256)) )(let ((?x3548 (storage_t x_0 x_1 x_SSTORE_0 0 w)))
 (let ((?x7084 (storage_t x_0 x_1 x_SSTORE_0 1 w)))
 (= ?x7084 ?x3548))))
 ))
 (let (($x10522 (forall ((n (_ BitVec 6)) )(let ((?x3134 (stack_t x_0 x_1 x_SSTORE_0 0 n)))
 (let ((?x4728 (stack_t x_0 x_1 x_SSTORE_0 1 n)))
 (let ((?x63 (sc_t 0)))
 (let ((?x4768 (bvadd (_ bv63 6) ?x63)))
 (let (($x366 (bvsle ?x4768 n)))
 (or $x366 (= ?x4728 ?x3134))))))))
 ))
 (let (($x6864 (= ?x10950 (bvadd (_ bv1 6) ?x63))))
 (let ((?x10397 (used_gas_t x_0 x_1 x_SSTORE_0 1)))
 (let (($x5581 (= ?x10397 (+ 3 ?x2523))))
 (let ((?x4768 (bvadd (_ bv63 6) ?x63)))
 (let ((?x3379 (stack_t x_0 x_1 x_SSTORE_0 0 ?x4768)))
 (let (($x7230 (= (stack_t x_0 x_1 x_SSTORE_0 1 ?x4768) ?x3379)))
 (let (($x2046 (= ?x3437 ?x3379)))
 (let (($x5428 (= $x772 (or (exc_halt_s 5) (not (bvsle (_ bv0 6) (bvadd (_ bv63 6) (sc_s 5))))))))
 (let (($x3194 (forall ((w (_ BitVec 256)) )(let ((?x9683 (storage_s x_0 x_1 x_SSTORE_0 5 w)))
 (let ((?x8738 (storage_s x_0 x_1 x_SSTORE_0 6 w)))
 (= ?x8738 ?x9683))))
 ))
 (let (($x1267 (forall ((n (_ BitVec 6)) )(let ((?x805 (sc_s 5)))
 (let ((?x5665 (bvadd (_ bv63 6) ?x805)))
 (let (($x3875 (bvsle ?x5665 n)))
 (let ((?x1110 (stack_s x_0 x_1 x_SSTORE_0 5 n)))
 (let ((?x3515 (stack_s x_0 x_1 x_SSTORE_0 6 n)))
 (or (= ?x3515 ?x1110) $x3875)))))))
 ))
 (let ((?x805 (sc_s 5)))
 (let ((?x5665 (bvadd (_ bv63 6) ?x805)))
 (let (($x10736 (= ?x926 ?x5665)))
 (let ((?x3499 (used_gas_s x_0 x_1 x_SSTORE_0 6)))
 (let (($x3979 (exc_halt_s 5)))
 (let (($x86 (= $x3979 (or (exc_halt_s 4) (not (bvsle (_ bv0 6) (bvadd (_ bv61 6) (sc_s 4))))))))
 (let (($x259 (forall ((w (_ BitVec 256)) )(let ((?x7455 (storage_s x_0 x_1 x_SSTORE_0 4 w)))
 (let ((?x9683 (storage_s x_0 x_1 x_SSTORE_0 5 w)))
 (= ?x9683 ?x7455))))
 ))
 (let (($x7123 (forall ((n (_ BitVec 6)) )(let ((?x8817 (stack_s x_0 x_1 x_SSTORE_0 4 n)))
 (let ((?x1110 (stack_s x_0 x_1 x_SSTORE_0 5 n)))
 (let (($x3022 (= ?x1110 ?x8817)))
 (or (bvsle (bvadd (_ bv61 6) (sc_s 4)) n) $x3022)))))
 ))
 (let ((?x4305 (sc_s 4)))
 (let (($x7896 (= ?x805 ?x4305)))
 (let ((?x8367 (used_gas_s x_0 x_1 x_SSTORE_0 5)))
 (let (($x11187 (= ?x8367 (+ 3 (used_gas_s x_0 x_1 x_SSTORE_0 4)))))
 (let ((?x3279 (bvadd (_ bv62 6) ?x4305)))
 (let ((?x6725 (stack_s x_0 x_1 x_SSTORE_0 4 ?x3279)))
 (let ((?x1334 (bvadd (_ bv62 6) ?x805)))
 (let ((?x8957 (stack_s x_0 x_1 x_SSTORE_0 5 ?x1334)))
 (let ((?x7007 (bvadd (_ bv63 6) ?x4305)))
 (let ((?x7589 (stack_s x_0 x_1 x_SSTORE_0 4 ?x7007)))
 (let ((?x2652 (stack_s x_0 x_1 x_SSTORE_0 5 ?x5665)))
 (let (($x8250 (not (bvsle (_ bv0 6) (bvadd (_ bv63 6) (sc_s 3))))))
 (let (($x7821 (not (= ((_ extract 6 6) (bvadd (_ bv1 7) (concat (_ bv0 1) (sc_s 3)))) (_ bv0 1)))))
 (let (($x292 (exc_halt_s 3)))
 (let (($x7172 (exc_halt_s 4)))
 (let (($x8575 (forall ((w (_ BitVec 256)) )(let ((?x1017 (storage_s x_0 x_1 x_SSTORE_0 3 w)))
 (let ((?x7455 (storage_s x_0 x_1 x_SSTORE_0 4 w)))
 (= ?x7455 ?x1017))))
 ))
 (let (($x2129 (forall ((n (_ BitVec 6)) )(let ((?x2693 (stack_s x_0 x_1 x_SSTORE_0 3 n)))
 (let ((?x8817 (stack_s x_0 x_1 x_SSTORE_0 4 n)))
 (let (($x8344 (= ?x8817 ?x2693)))
 (let ((?x275 (sc_s 3)))
 (let ((?x10342 (bvadd (_ bv63 6) ?x275)))
 (let (($x7041 (bvsle ?x10342 n)))
 (or $x7041 $x8344))))))))
 ))
 (let (($x10307 (= ?x4305 (bvadd (_ bv1 6) (sc_s 3)))))
 (let ((?x2701 (used_gas_s x_0 x_1 x_SSTORE_0 4)))
 (let ((?x275 (sc_s 3)))
 (let ((?x10342 (bvadd (_ bv63 6) ?x275)))
 (let ((?x2030 (stack_s x_0 x_1 x_SSTORE_0 3 ?x10342)))
 (let (($x9976 (= $x292 (or (exc_halt_s 2) (not (bvsle (_ bv0 6) (bvadd (_ bv62 6) (sc_s 2))))))))
 (let (($x8072 (forall ((n (_ BitVec 6)) )(let ((?x218 (sc_s 2)))
 (let ((?x8765 (bvadd (_ bv62 6) ?x218)))
 (let (($x1654 (bvsle ?x8765 n)))
 (let ((?x4059 (stack_s x_0 x_1 x_SSTORE_0 2 n)))
 (let ((?x2693 (stack_s x_0 x_1 x_SSTORE_0 3 n)))
 (or (= ?x2693 ?x4059) $x1654)))))))
 ))
 (let ((?x218 (sc_s 2)))
 (let ((?x8765 (bvadd (_ bv62 6) ?x218)))
 (let ((?x8858 (stack_s x_0 x_1 x_SSTORE_0 2 ?x8765)))
 (let (($x5693 (= ?x8858 (_ bv0 256))))
 (let ((?x8251 (bvadd (_ bv63 6) ?x218)))
 (let ((?x7974 (stack_s x_0 x_1 x_SSTORE_0 2 ?x8251)))
 (let ((?x8379 (ite (= (storage_s x_0 x_1 x_SSTORE_0 2 ?x7974) (_ bv0 256)) (ite $x5693 5000 20000) (ite $x5693 (- 10000) 5000))))
 (let ((?x6262 (used_gas_s x_0 x_1 x_SSTORE_0 2)))
 (let ((?x3386 (used_gas_s x_0 x_1 x_SSTORE_0 3)))
 (let (($x7749 (forall ((w (_ BitVec 256)) )(let ((?x3451 (storage_s x_0 x_1 x_SSTORE_0 2 w)))
 (let (($x5948 (= w (stack_s x_0 x_1 x_SSTORE_0 2 (bvadd (_ bv63 6) (sc_s 2))))))
 (let ((?x6093 (ite $x5948 (stack_s x_0 x_1 x_SSTORE_0 2 (bvadd (_ bv62 6) (sc_s 2))) ?x3451)))
 (let ((?x1017 (storage_s x_0 x_1 x_SSTORE_0 3 w)))
 (= ?x1017 ?x6093))))))
 ))
 (let (($x4050 (not (= ((_ extract 6 6) (bvadd (_ bv1 7) (concat (_ bv0 1) (sc_s 1)))) (_ bv0 1)))))
 (let (($x189 (exc_halt_s 1)))
 (let (($x247 (exc_halt_s 2)))
 (let (($x5167 (= $x247 (or $x189 $x4050 (not (bvsle (_ bv0 6) (bvadd (_ bv61 6) (sc_s 1))))))))
 (let (($x8595 (forall ((w (_ BitVec 256)) )(let ((?x3991 (storage_s x_0 x_1 x_SSTORE_0 1 w)))
 (let ((?x3451 (storage_s x_0 x_1 x_SSTORE_0 2 w)))
 (= ?x3451 ?x3991))))
 ))
 (let (($x774 (forall ((n (_ BitVec 6)) )(let ((?x154 (sc_s 1)))
 (let ((?x11350 (bvadd (_ bv61 6) ?x154)))
 (let (($x9394 (bvsle ?x11350 n)))
 (let ((?x6668 (stack_s x_0 x_1 x_SSTORE_0 1 n)))
 (let ((?x4059 (stack_s x_0 x_1 x_SSTORE_0 2 n)))
 (let (($x2038 (= ?x4059 ?x6668)))
 (or $x2038 $x9394))))))))
 ))
 (let (($x4375 (= ?x218 (bvadd (_ bv1 6) (sc_s 1)))))
 (let (($x9807 (= ?x6262 (+ 3 (used_gas_s x_0 x_1 x_SSTORE_0 1)))))
 (let ((?x154 (sc_s 1)))
 (let ((?x2527 (bvadd (_ bv63 6) ?x154)))
 (let ((?x7626 (stack_s x_0 x_1 x_SSTORE_0 1 ?x2527)))
 (let (($x941 (= (stack_s x_0 x_1 x_SSTORE_0 2 ?x2527) ?x7626)))
 (let ((?x1874 (bvadd (_ bv62 6) ?x154)))
 (let ((?x1202 (stack_s x_0 x_1 x_SSTORE_0 1 ?x1874)))
 (let (($x823 (= (stack_s x_0 x_1 x_SSTORE_0 2 ?x1874) ?x1202)))
 (let ((?x11350 (bvadd (_ bv61 6) ?x154)))
 (let ((?x7156 (stack_s x_0 x_1 x_SSTORE_0 1 ?x11350)))
 (let (($x9123 (not (= ((_ extract 6 6) (bvadd (_ bv1 7) (concat (_ bv0 1) ?x72))) (_ bv0 1)))))
 (let (($x3261 (not (bvsle (_ bv0 6) (bvadd (_ bv63 6) ?x72)))))
 (let (($x3633 (= $x189 (or $x57 $x3261 $x9123))))
 (let (($x1764 (forall ((w (_ BitVec 256)) )(let ((?x3296 (storage_s x_0 x_1 x_SSTORE_0 0 w)))
 (let ((?x3991 (storage_s x_0 x_1 x_SSTORE_0 1 w)))
 (= ?x3991 ?x3296))))
 ))
 (let (($x1840 (forall ((n (_ BitVec 6)) )(let ((?x2604 (stack_s x_0 x_1 x_SSTORE_0 0 n)))
 (let ((?x6668 (stack_s x_0 x_1 x_SSTORE_0 1 n)))
 (let (($x7905 (= ?x6668 ?x2604)))
 (let ((?x72 (sc_s 0)))
 (let ((?x10756 (bvadd (_ bv63 6) ?x72)))
 (let (($x1417 (bvsle ?x10756 n)))
 (or $x1417 $x7905))))))))
 ))
 (let (($x481 (= ?x154 (bvadd (_ bv1 6) ?x72))))
 (let ((?x5594 (used_gas_s x_0 x_1 x_SSTORE_0 1)))
 (let (($x5492 (= ?x5594 (+ 3 ?x8131))))
 (let ((?x10756 (bvadd (_ bv63 6) ?x72)))
 (let ((?x9603 (stack_s x_0 x_1 x_SSTORE_0 0 ?x10756)))
 (let (($x10864 (forall ((w (_ BitVec 256)) )(let (($x5948 (= w (stack_s x_0 x_1 x_SSTORE_0 2 (bvadd (_ bv63 6) (sc_s 2))))))
 (let ((?x3296 (storage_s x_0 x_1 x_SSTORE_0 0 w)))
 (= ?x3296 (ite $x5948 x_SSTORE_0 (_ bv0 256))))))
 ))
 (let (($x6540 (= ?x8131 0)))
 (let (($x1438 (not $x57)))
 (let (($x5442 (= (stack_s x_0 x_1 x_SSTORE_0 0 (_ bv1 6)) x_1)))
 (let (($x2831 (= (stack_s x_0 x_1 x_SSTORE_0 0 (_ bv0 6)) x_0)))
 (let (($x4356 (= ?x72 (_ bv2 6))))
 (and $x4356 $x2831 $x5442 $x1438 $x6540 $x10864 (= ?x7626 ?x9603) (= (stack_s x_0 x_1 x_SSTORE_0 1 ?x10756) ?x9603) $x5492 $x481 $x1840 $x1764 $x3633 (= ?x7974 ?x7156) (= (stack_s x_0 x_1 x_SSTORE_0 2 ?x11350) ?x7156) $x823 $x941 $x9807 $x4375 $x774 $x8595 $x5167 $x7749 (= ?x3386 (+ ?x6262 ?x8379)) (= ?x275 ?x8765) $x8072 $x9976 (= ?x7589 ?x2030) (= (stack_s x_0 x_1 x_SSTORE_0 4 ?x10342) ?x2030) (= ?x2701 (+ 3 ?x3386)) $x10307 $x2129 $x8575 (= $x7172 (or $x292 $x7821 $x8250)) (= ?x2652 (stack_s x_0 x_1 x_SSTORE_0 4 (bvadd (_ bv61 6) ?x4305))) (= (stack_s x_0 x_1 x_SSTORE_0 5 (bvadd (_ bv61 6) ?x805)) ?x7589) (= ?x8957 ?x6725) $x11187 $x7896 $x7123 $x259 $x86 (= ?x3499 (+ 2 ?x8367)) $x10736 $x1267 $x3194 $x5428 $x2046 $x7230 $x5581 $x6864 $x10522 $x6067 $x1798 $x7534 $x8411 $x6069 $x6826 $x2338 $x260 $x1985 $x10592 $x6715 $x9914 $x5264 $x8470 $x2548 $x3317 $x7610 $x8648 $x4547 (= ?x1636 (+ ?x5902 ?x9187)) (= ?x3757 ?x11268) $x4029 $x6800 $x73 $x5449 $x58 $x8419 $x5354 (not (and $x3687 $x5662 $x3950 $x8132)))))))))))))))))))))))))))))))))))))))))))))))))))))))))))))))))))))))))))))))))))))))))))))))))))))))))))))))))))))))))))))))))))))))))))))))))))))))))
 )
(check-sat)
(get-proof)
